SAT
-1 -100 -99 -98 -97 96 66 -14 44 12 36 -75 -31 -91 71 94 -57 -78 -90 -32 18 84 -56 -4 54 -65 -74 95 55 -20 -88 13 -24 81 49 -60 28 -47 -29 -76 73 21 -43 77 38 59 -34 -83 -50 67 -19 -48 26 -63 22 45 -16 -68 70 64 -86 37 -33 -6 -58 35 -23 52 -8 -69 40 7 82 -17 42 -62 -46 -41 89 10 27 -85 -72 5 -11 -79 15 61 9 30 -2 -92 53 -25 -51 80 -87 39 -3 -93 0
